
List of user-set options:

                                    Name   Value                used
                           compl_inf_tol = 1                     yes
                         constr_viol_tol = 1                     yes
                            dual_inf_tol = 1000                  yes
                           linear_solver = ma97                  yes
                              ma86_small = 1e-30                  no
                                  ma86_u = 0.0001                 no
                              ma97_order = best                  yes
                              ma97_small = 1e-30                 yes
                            ma97_switch1 = at_start              yes
                            ma97_switch2 = od_hd_reuse           yes
                                  ma97_u = 1e-06                 yes
                               ma97_umax = 0.5                   yes
                                max_iter = 1000                  yes
                    max_refinement_steps = 20                    yes
                    min_refinement_steps = 5                     yes
                                 mu_init = 1e-06                 yes
           mu_superlinear_decrease_power = 1.25                  yes
                   nlp_scaling_min_value = 1e-08                 yes
                        option_file_name = Preset_Case:_228_NCP.opt  yes
                             output_file = ./tmp/Preset_Case:_228_NCP.output  yes
                      print_user_options = yes                   yes
        required_infeasibility_reduction = 1                      no
                                     tol = 1e-08                 yes
                   warm_start_bound_frac = 1e-20                 yes
                   warm_start_bound_push = 1e-20                 yes
                   warm_start_init_point = yes                   yes
              warm_start_mult_bound_push = 1e-20                 yes
                warm_start_mult_init_max = 1e+40                 yes
             warm_start_slack_bound_frac = 1e-20                 yes
             warm_start_slack_bound_push = 1e-20                 yes

******************************************************************************
This program contains Ipopt, a library for large-scale nonlinear optimization.
 Ipopt is released as open source code under the Eclipse Public License (EPL).
         For more information visit http://projects.coin-or.org/Ipopt
******************************************************************************

This is Ipopt version 3.12.10, running with linear solver ma97.

Number of nonzeros in equality constraint Jacobian...:   117167
Number of nonzeros in inequality constraint Jacobian.:      213
Number of nonzeros in Lagrangian Hessian.............:    47513

Total number of variables............................:    29977
                     variables with only lower bounds:    11312
                variables with lower and upper bounds:    15135
                     variables with only upper bounds:        0
Total number of equality constraints.................:    29864
Total number of inequality constraints...............:       25
        inequality constraints with only lower bounds:        4
   inequality constraints with lower and upper bounds:        0
        inequality constraints with only upper bounds:       21

iter    objective    inf_pr   inf_du lg(mu)  ||d||  lg(rg) alpha_du alpha_pr  ls
   0 -1.6589574e-01 1.45e-01 2.00e+00  -6.0 0.00e+00    -  0.00e+00 0.00e+00   0
In iteration 0, 9 Slacks too small, adjusting variable bounds
   1 -1.6589574e-01 1.45e-01 2.33e+03  -6.0 1.08e+10    -  2.33e-13 7.95e-19h  1
   2 -1.6589577e-01 1.45e-01 2.34e+03  -6.0 3.99e+02    -  3.87e-07 6.40e-06f  1
   3 -1.6589577e-01 1.45e-01 2.33e+03  -6.0 2.43e+02    -  2.69e-03 3.65e-07h  2
   4 -1.6589495e-01 1.45e-01 2.33e+03  -6.0 3.82e+02    -  1.83e-04 8.07e-04h  1
   5 -1.6590998e-01 1.45e-01 2.33e+03  -6.0 3.52e+02    -  1.07e-03 1.37e-03h  1
   6 -1.6595262e-01 1.44e-01 2.32e+03  -6.0 3.59e+02    -  1.45e-03 3.58e-03f  1
   7 -1.6605862e-01 1.43e-01 2.33e+03  -6.0 3.73e+02    -  1.10e-03 7.45e-03f  1
   8 -1.6625868e-01 1.41e-01 2.31e+03  -6.0 4.05e+02    -  4.33e-03 1.34e-02f  1
   9 -1.6641198e-01 1.40e-01 2.28e+03  -6.0 4.26e+02    -  1.57e-02 1.08e-02f  1
iter    objective    inf_pr   inf_du lg(mu)  ||d||  lg(rg) alpha_du alpha_pr  ls
  10 -1.6665508e-01 1.37e-01 2.24e+03  -6.0 4.31e+02    -  1.53e-02 2.03e-02f  1
  11r-1.6665508e-01 1.37e-01 1.00e+03  -0.9 0.00e+00    -  0.00e+00 4.63e-07R  2
  12r-1.6665327e-01 1.37e-01 1.35e+03  -0.9 1.59e+03    -  5.06e-06 7.73e-07f  1
  13 -1.6665715e-01 1.37e-01 2.68e+06  -6.0 4.20e+02    -  2.74e-02 3.46e-04h  1
  14 -1.6666084e-01 1.37e-01 2.35e+06  -6.0 4.23e+02    -  3.48e-04 3.06e-04h  1
  15 -1.6723295e-01 1.86e-01 2.29e+06  -6.0 4.65e+02    -  2.00e-03 2.51e-02h  1
  16 -1.6726044e-01 1.86e-01 2.29e+06  -6.0 5.45e+02    -  1.68e-02 1.12e-03f  1
  17 -1.6775119e-01 3.65e-01 2.20e+06  -6.0 5.18e+02    -  4.62e-02 3.73e-02h  1
  18 -1.6776268e-01 3.66e-01 2.20e+06  -6.0 5.15e+02    -  2.24e-02 3.11e-03h  5
  19 -1.6776292e-01 3.67e-01 2.19e+06  -6.0 5.39e+02    -  6.35e-02 2.50e-03h  6
iter    objective    inf_pr   inf_du lg(mu)  ||d||  lg(rg) alpha_du alpha_pr  ls
  20 -1.6774286e-01 3.67e-01 2.19e+06  -6.0 5.79e+02    -  3.61e-02 2.78e-03h  6
  21 -1.6772548e-01 3.67e-01 2.18e+06  -6.0 6.08e+02    -  7.75e-02 1.42e-03h  7
  22 -1.6771274e-01 3.67e-01 2.18e+06  -6.0 6.87e+02    -  3.09e-02 5.24e-04h  8
  23 -1.6597575e-01 1.15e+00 2.05e+06  -6.0 7.27e+02    -  6.15e-02 6.15e-02s 18
  24 -1.6508401e-01 1.32e+00 1.97e+06  -6.0 6.59e+02    -  4.02e-02 4.02e-02s 18
  25 -1.6496139e-01 1.34e+00 1.90e+06  -6.0 6.01e+02    -  3.35e-02 3.35e-02s 18
  26 -1.6594956e-01 1.29e+00 1.83e+06  -6.0 2.11e+03    -  3.57e-02 3.57e-02s 18
  27 -1.6584806e-01 1.29e+00 1.81e+06  -6.0 5.07e+02    -  1.20e-02 1.20e-02s 18
  28r-1.6584806e-01 1.29e+00 1.00e+03  -0.2 0.00e+00    -  0.00e+00 0.00e+00R  1
  29r-1.6567038e-01 1.29e+00 1.00e+03  -0.2 1.67e+04    -  1.02e-05 3.87e-06f  1
iter    objective    inf_pr   inf_du lg(mu)  ||d||  lg(rg) alpha_du alpha_pr  ls
  30 -1.6566971e-01 1.29e+00 2.16e+05  -6.0 2.49e+02    -  3.56e-02 7.63e-05h  1
  31 -1.6564988e-01 1.28e+00 1.38e+07  -6.0 4.04e+02    -  7.71e-05 4.92e-03h  1
  32r-1.6564988e-01 1.28e+00 1.00e+03  -0.2 0.00e+00    -  0.00e+00 1.12e-07R  2
  33r-1.6564903e-01 1.28e+00 1.00e+03  -0.2 1.36e+04    -  2.85e-06 7.54e-08f  1
  34r-1.6564903e-01 1.28e+00 9.99e+02  -0.2 0.00e+00    -  0.00e+00 4.82e-07R  3
  35r-1.6564816e-01 1.28e+00 5.16e+03  -0.2 1.48e+04    -  1.45e-06 6.61e-08f  1
  36 -1.6564325e-01 1.28e+00 2.94e+06  -6.0 2.46e+02    -  3.60e-02 5.65e-04h  1
  37 -1.6563721e-01 1.28e+00 4.00e+06  -6.0 2.39e+02    -  5.67e-04 7.68e-04h  1
  38 -1.6562455e-01 1.28e+00 3.99e+06  -6.0 4.00e+02    -  2.76e-03 3.26e-03h  1
  39r-1.6562455e-01 1.28e+00 1.00e+03  -0.2 0.00e+00    -  0.00e+00 3.39e-07R  2
iter    objective    inf_pr   inf_du lg(mu)  ||d||  lg(rg) alpha_du alpha_pr  ls
  40r-1.6562452e-01 1.28e+00 1.00e+03  -0.2 1.36e+04    -  4.42e-08 6.80e-10f  2
  41r-1.6562452e-01 1.28e+00 9.99e+02  -0.2 0.00e+00    -  0.00e+00 4.42e-07R  3
  42r-1.6562426e-01 1.28e+00 9.99e+02  -0.2 1.52e+04    -  4.69e-07 2.13e-08f  1
  43 -1.6562035e-01 1.28e+00 2.26e+05  -6.0 2.45e+02    -  3.67e-02 4.49e-04h  1
  44 -1.6561718e-01 1.27e+00 4.39e+05  -6.0 3.99e+02    -  4.66e-04 8.98e-04h  1
  45 -1.6559469e-01 1.27e+00 1.31e+06  -6.0 1.05e+03    -  2.43e-02 3.42e-04h  1
  46 -1.6500489e-01 1.28e+00 8.80e+05  -6.0 1.09e+03    -  1.75e-03 9.33e-03h  2
  47 -1.6424730e-01 1.28e+00 9.93e+06  -6.0 1.10e+03    -  1.71e-01 1.17e-02h  1
  48 -1.6338442e-01 1.30e+00 1.03e+07  -6.0 1.18e+03    -  2.42e-02 1.19e-02h  4
  49 -1.6257093e-01 1.32e+00 1.53e+07  -6.0 1.16e+03    -  1.43e-01 1.12e-02h  4
iter    objective    inf_pr   inf_du lg(mu)  ||d||  lg(rg) alpha_du alpha_pr  ls
  50 -1.6217386e-01 1.32e+00 1.67e+07  -6.0 1.16e+03    -  5.95e-02 5.44e-03h  5
  51 -1.6180561e-01 1.32e+00 2.01e+07  -6.0 1.15e+03    -  1.46e-01 5.08e-03h  5
  52 -1.6147102e-01 1.32e+00 2.13e+07  -6.0 1.15e+03    -  8.44e-02 4.66e-03h  5
  53 -1.6116032e-01 1.32e+00 2.32e+07  -6.0 1.15e+03    -  1.62e-01 4.37e-03h  5
  54 -1.6101765e-01 1.31e+00 2.37e+07  -6.0 1.14e+03    -  1.01e-01 2.03e-03h  6
  55 -1.6094921e-01 1.31e+00 2.43e+07  -6.0 1.14e+03    -  2.13e-01 9.86e-04h  7
  56 -1.6093268e-01 1.31e+00 2.41e+07  -6.0 1.13e+03    -  9.61e-02 2.46e-04h  9
  57 -1.6092857e-01 1.31e+00 2.33e+07  -6.0 1.12e+03    -  2.36e-01 6.31e-05h 11
  58 -1.5661816e-01 1.61e+00 2.14e+07  -6.0 1.07e+03    -  9.24e-02 7.68e-02w  1
  59 -1.5658736e-01 1.60e+00 2.13e+07  -6.0 1.20e+03    -  4.70e-02 2.15e-03w  1
iter    objective    inf_pr   inf_du lg(mu)  ||d||  lg(rg) alpha_du alpha_pr  ls
  60 -1.5499945e-01 2.37e+00 1.84e+07  -6.0 1.20e+03    -  3.49e-01 1.12e-01w  1
  61 -1.6092752e-01 1.31e+00 2.28e+07  -6.0 1.16e+03    -  9.24e-02 1.88e-05h 12
  62 -1.6064491e-01 1.31e+00 2.08e+07  -6.0 1.13e+03    -  3.42e-01 5.83e-03h  5
  63 -1.6052259e-01 1.30e+00 2.02e+07  -6.0 1.28e+03    -  8.82e-02 4.27e-03h  6
  64 -1.6041295e-01 1.30e+00 1.82e+07  -6.0 1.29e+03    -  4.22e-01 4.14e-03h  6
  65 -1.6032813e-01 1.30e+00 1.77e+07  -6.0 1.32e+03    -  9.60e-02 3.85e-03h  6
  66 -1.6023777e-01 1.29e+00 1.71e+07  -6.0 1.30e+03    -  1.35e-01 3.88e-03h  6
  67 -1.6013835e-01 1.29e+00 1.64e+07  -6.0 1.27e+03    -  2.24e-01 3.94e-03h  6
  68 -1.6002206e-01 1.28e+00 1.62e+07  -6.0 1.61e+03    -  5.45e-02 4.06e-03h  6
  69 -1.5995755e-01 1.28e+00 1.59e+07  -6.0 1.77e+03    -  3.55e-01 2.09e-03h  7
iter    objective    inf_pr   inf_du lg(mu)  ||d||  lg(rg) alpha_du alpha_pr  ls
  70 -1.5987623e-01 1.28e+00 1.57e+07  -6.0 2.46e+03    -  4.49e-02 2.22e-03h  7
  71 -1.5453116e-01 2.86e+00 1.28e+07  -6.0 2.55e+03    -  2.67e-01 1.44e-01w  1
  72 -1.5442552e-01 2.85e+00 5.74e+06  -6.0 3.31e+03    -  1.07e-01 2.95e-03w  1
  73 -1.4818994e-01 9.73e+00 1.94e+07  -6.0 3.42e+03    -  8.72e-03 1.70e-01w  1
  74 -1.5979271e-01 1.27e+00 1.43e+07  -6.0 2.17e+03    -  2.67e-01 2.24e-03h  6
  75 -1.5969054e-01 1.27e+00 1.38e+07  -6.0 3.07e+03    -  4.58e-02 2.44e-03h  7
  76 -1.5959241e-01 1.27e+00 9.20e+06  -6.0 3.08e+03    -  3.39e-01 2.41e-03h  7
  77 -1.5945298e-01 1.26e+00 7.99e+06  -6.0 3.70e+03    -  4.71e-02 2.94e-03h  7
  78 -1.5919733e-01 1.25e+00 5.34e+06  -6.0 3.58e+03    -  2.63e-01 5.77e-03h  6
  79 -1.5887015e-01 1.24e+00 5.31e+06  -6.0 4.06e+03    -  5.86e-02 7.16e-03h  6
iter    objective    inf_pr   inf_du lg(mu)  ||d||  lg(rg) alpha_du alpha_pr  ls
  80 -1.5855449e-01 1.22e+00 5.27e+06  -6.0 4.33e+03    -  4.10e-04 7.34e-03h  6
  81 -1.5833223e-01 1.21e+00 5.27e+06  -6.0 3.43e+03    -  1.16e-03 7.56e-03h  6
  82 -1.5812587e-01 1.20e+00 5.22e+06  -6.0 3.43e+03    -  7.73e-03 7.02e-03h  6
  83 -1.5793133e-01 1.20e+00 4.56e+06  -6.0 3.54e+03    -  1.37e-01 6.43e-03h  6
  84 -1.5532741e-01 8.84e+00 4.41e+06  -6.0 5.56e+03    -  2.50e-02 8.86e-02w  1
  85 -1.5532734e-01 8.84e+00 3.27e+06  -6.0 3.29e+02   2.0 2.41e-06 6.15e-06w  1
  86 -1.5532693e-01 8.84e+00 2.46e+06  -6.0 8.51e+01   1.5 1.53e-06 1.54e-05w  1
  87 -1.5789065e-01 1.20e+00 4.46e+06  -6.0 8.51e+01   1.0 2.50e-02 1.38e-03h  6
  88 -1.5788249e-01 1.20e+00 4.00e+06  -6.0 8.20e+03    -  1.18e-01 3.43e-04h  8
  89 -1.5788218e-01 1.20e+00 4.04e+06  -6.0 3.25e+02   0.6 8.75e-05 8.43e-05h  1
iter    objective    inf_pr   inf_du lg(mu)  ||d||  lg(rg) alpha_du alpha_pr  ls
  90 -1.5787477e-01 1.20e+00 2.69e+06  -6.0 1.11e+02   0.1 9.69e-07 7.26e-04h  1
  91 -1.5785955e-01 1.19e+00 2.69e+06  -6.0 1.20e+02  -0.4 6.20e-04 1.86e-03h  1
  92r-1.5785955e-01 1.19e+00 1.00e+03  -0.3 0.00e+00  -0.9 0.00e+00 1.31e-09R  2
  93r-1.5761262e-01 1.19e+00 1.00e+03  -0.3 1.14e+05    -  9.64e-06 5.65e-06f  1
  94 -1.5761169e-01 1.19e+00 3.40e+02  -6.0 2.76e+02    -  4.82e-02 1.49e-04h  1
  95 -1.5761212e-01 1.18e+00 2.38e+06  -6.0 7.46e+02    -  2.58e-01 6.19e-03h  1
  96 -1.5753851e-01 1.18e+00 4.16e+06  -6.0 3.76e+02    -  2.14e-01 7.74e-03h  1
  97 -1.5751378e-01 1.18e+00 5.37e+06  -6.0 9.72e+02    -  1.24e-01 3.64e-04h  1
  98 -1.5696149e-01 1.18e+00 6.56e+06  -6.0 9.95e+02    -  1.71e-01 8.04e-03h  3
  99 -1.5614236e-01 1.18e+00 6.90e+06  -6.0 9.80e+02    -  1.01e-01 1.24e-02h  2
iter    objective    inf_pr   inf_du lg(mu)  ||d||  lg(rg) alpha_du alpha_pr  ls
 100 -1.5529596e-01 1.18e+00 7.55e+06  -6.0 9.20e+02    -  2.12e-01 1.42e-02h  1
 101 -1.5522187e-01 1.18e+00 8.11e+06  -6.0 1.05e+03    -  1.44e-01 4.49e-03h  7
 102 -1.5509169e-01 1.18e+00 1.06e+07  -6.0 1.07e+03    -  2.63e-01 8.42e-03h  6
 103 -1.5498318e-01 1.18e+00 1.25e+07  -6.0 1.10e+03    -  1.61e-01 7.78e-03h  6
 104 -1.5488347e-01 1.17e+00 1.60e+07  -6.0 1.10e+03    -  4.06e-01 7.49e-03h  6
 105 -1.5470136e-01 1.15e+00 1.57e+07  -6.0 1.12e+03    -  1.60e-01 1.47e-02h  5
 106 -1.5453199e-01 1.13e+00 1.49e+07  -6.0 1.10e+03    -  4.62e-01 1.39e-02h  5
 107 -1.5435159e-01 1.10e+00 1.40e+07  -6.0 1.06e+03    -  1.97e-01 1.39e-02h  5
 108 -1.5416621e-01 1.08e+00 1.19e+07  -6.0 1.04e+03    -  4.73e-01 1.36e-02h  5
 109 -1.5390085e-01 1.06e+00 1.07e+07  -6.0 1.53e+03    -  2.44e-01 1.55e-02h  5
iter    objective    inf_pr   inf_du lg(mu)  ||d||  lg(rg) alpha_du alpha_pr  ls
 110 -1.5356532e-01 1.03e+00 8.43e+06  -6.0 1.77e+03    -  5.39e-01 1.74e-02h  5
 111 -1.4188063e-01 2.33e+01 5.88e+06  -6.0 2.42e+03    -  5.82e-02 4.63e-01w  1
 112 -1.4184704e-01 2.32e+01 4.73e+06  -6.0 6.78e+02  -1.3 3.93e-04 3.45e-03w  1
 113 -1.4168319e-01 2.30e+01 5.11e+06  -6.0 7.11e+01  -1.8 1.02e-03 9.61e-03w  1
 114 -1.5338275e-01 1.02e+00 8.20e+06  -6.0 8.30e+01  -2.3 5.82e-02 7.23e-03h  6
 115 -1.5336607e-01 1.02e+00 7.70e+06  -6.0 4.86e+02  -2.8 1.69e-02 3.70e-04h  1
 116 -1.5319620e-01 1.01e+00 7.67e+06  -6.0 2.71e+03    -  3.77e-06 6.69e-03h  6
 117 -1.5319415e-01 1.01e+00 5.93e+06  -6.0 5.06e+02  -3.2 1.15e-01 4.36e-05h  1
 118 -1.5318789e-01 1.01e+00 1.21e+07  -6.0 6.68e+02  -3.7 1.23e-01 2.64e-04h  1
 119 -1.5287325e-01 1.00e+00 1.00e+07  -6.0 3.39e+03    -  2.69e-01 1.12e-02h  6
iter    objective    inf_pr   inf_du lg(mu)  ||d||  lg(rg) alpha_du alpha_pr  ls
 120r-1.5287325e-01 1.00e+00 1.00e+03  -0.4 0.00e+00  -4.2 0.00e+00 2.56e-07R  2
 121r-1.5273482e-01 1.00e+00 1.00e+03  -0.4 5.08e+05    -  6.44e-07 6.37e-07f  1
 122r-1.5252922e-01 9.97e-01 1.71e+03  -0.4 8.69e+03    -  2.45e-05 7.22e-06f  1
 123 -1.5252818e-01 9.96e-01 5.10e+05  -6.0 4.90e+02    -  1.16e-02 3.56e-04h  1
 124 -1.5252802e-01 9.96e-01 1.18e+04  -6.0 5.68e+02    -  3.60e-04 1.92e-05h  1
 125 -1.5252697e-01 9.96e-01 1.49e+06  -6.0 4.87e+02    -  1.47e-01 7.96e-05h  1
 126 -1.5244005e-01 9.94e-01 1.47e+06  -6.0 5.90e+02    -  4.49e-04 2.05e-03h  1
 127 -1.5207740e-01 1.00e+00 5.00e+06  -6.0 5.26e+02    -  2.00e-01 1.57e-02h  2
 128 -1.5185778e-01 1.01e+00 5.13e+06  -6.0 5.99e+02    -  1.82e-02 1.12e-02h  4
 129 -1.5164498e-01 1.02e+00 1.29e+07  -6.0 5.91e+02    -  3.13e-01 1.12e-02h  4
iter    objective    inf_pr   inf_du lg(mu)  ||d||  lg(rg) alpha_du alpha_pr  ls
 130 -1.5147975e-01 1.03e+00 1.32e+07  -6.0 6.66e+02    -  4.37e-02 1.13e-02h  5
 131 -1.5132937e-01 1.04e+00 1.63e+07  -6.0 6.51e+02    -  2.54e-01 1.05e-02h  5
 132 -1.5110141e-01 1.05e+00 1.63e+07  -6.0 6.67e+02    -  7.57e-02 1.83e-02h  4
 133 -1.5090694e-01 1.06e+00 1.72e+07  -6.0 6.39e+02    -  2.75e-01 1.62e-02h  4
 134 -1.5061065e-01 1.04e+00 1.67e+07  -6.0 6.34e+02    -  1.30e-01 2.81e-02h  3
 135 -1.5039336e-01 1.02e+00 1.62e+07  -6.0 6.26e+02    -  1.89e-01 2.21e-02h  3
 136 -1.5016642e-01 9.91e-01 1.51e+07  -6.0 6.53e+02    -  3.13e-01 2.43e-02h  1
 137 -1.4984155e-01 9.56e-01 1.45e+07  -6.0 6.84e+02    -  6.02e-02 3.15e-02h  2
 138 -1.4944846e-01 9.30e-01 1.36e+07  -6.0 7.94e+02    -  1.16e-01 3.50e-02h  1
 139 -1.3663251e-01 9.06e-01 1.33e+07  -6.0 9.87e+02    -  1.75e-04 3.12e-02h  3
iter    objective    inf_pr   inf_du lg(mu)  ||d||  lg(rg) alpha_du alpha_pr  ls
 140  1.4643913e-02 8.07e-01 1.28e+07  -6.0 8.20e+02    -  4.29e-03 5.05e-02h  2
 141  2.3662792e-02 7.82e-01 1.15e+07  -6.0 8.97e+02    -  2.33e-01 2.22e-02h  3
 142  4.0646421e-02 7.54e-01 1.13e+07  -6.0 9.34e+02    -  1.49e-02 2.72e-02h  4
 143  5.5519503e-02 7.09e-01 1.09e+07  -6.0 5.49e+02    -  3.74e-06 3.12e-02h  4
 144  6.2465955e-02 6.71e-01 1.08e+07  -6.0 5.19e+02    -  2.03e-01 2.98e-02h  4
 145  6.9886545e-02 6.51e-01 1.05e+07  -6.0 4.98e+02    -  6.89e-02 3.04e-02h  4
 146  7.4542221e-02 6.64e-01 1.10e+07  -6.0 4.79e+02    -  4.62e-01 2.90e-02h  4
 147  8.0460297e-02 6.74e-01 1.06e+07  -6.0 6.06e+02    -  1.36e-01 2.81e-02h  4
 148  8.5029510e-02 6.81e-01 1.03e+07  -6.0 6.76e+02    -  2.61e-01 2.62e-02h  4
 149  8.6601493e-02 6.81e-01 7.17e+06  -6.0 1.52e+02  -3.8 1.80e-01 2.38e-03h  1
iter    objective    inf_pr   inf_du lg(mu)  ||d||  lg(rg) alpha_du alpha_pr  ls
 150  8.7817262e-02 6.81e-01 2.53e+06  -6.0 1.39e+03  -4.3 3.30e-02 3.31e-04h  1
 151  9.0665189e-02 6.80e-01 2.45e+06  -6.0 1.03e+03    -  1.04e-03 1.21e-02h  5
 152r 9.0665189e-02 6.80e-01 1.00e+03  -0.6 0.00e+00  -3.8 0.00e+00 3.08e-07R  2
 153r 9.0767039e-02 6.92e-01 2.62e+03  -0.6 1.61e+05    -  6.52e-05 2.13e-06f  1
 154  9.0725353e-02 6.92e-01 1.50e+03  -6.0 5.09e+01    -  4.47e-03 1.66e-04h  1
 155  9.0680116e-02 6.92e-01 2.95e+03  -6.0 1.11e+02    -  1.71e-04 3.31e-04f  1
 156  9.0644874e-02 6.91e-01 2.98e+04  -6.0 1.68e+02    -  2.08e-03 1.55e-04f  1
 157  9.0164050e-02 6.90e-01 1.01e+04  -6.0 1.65e+02    -  8.62e-04 2.18e-03h  1
 158  8.9538140e-02 6.88e-01 2.88e+06  -6.0 1.65e+02    -  1.96e-01 2.84e-03h  1
 159  8.6760620e-02 6.82e-01 2.76e+06  -6.0 1.60e+02    -  5.77e-03 1.24e-02h  1
iter    objective    inf_pr   inf_du lg(mu)  ||d||  lg(rg) alpha_du alpha_pr  ls
 160  8.5553515e-02 6.79e-01 7.70e+06  -6.0 1.58e+02    -  3.62e-01 5.47e-03h  1
 161  5.9323358e-02 9.51e-01 6.14e+06  -6.0 2.16e+02    -  2.48e-02 1.18e-01H  1
 162r 5.9323358e-02 9.51e-01 1.00e+03  -0.6 0.00e+00    -  0.00e+00 2.18e-07R  2
 163r 5.9281439e-02 9.42e-01 1.68e+03  -0.6 2.96e+03    -  2.18e-05 1.01e-05f  1
 164  5.9219384e-02 9.42e-01 9.04e+06  -6.0 5.39e+01    -  1.09e-01 3.10e-04h  1
 165  5.9084630e-02 9.41e-01 1.96e+07  -6.0 5.11e+01    -  3.11e-04 6.75e-04h  1
 166  5.8336591e-02 9.38e-01 1.95e+07  -6.0 1.16e+02    -  5.86e-03 3.80e-03h  1
 167  5.7564420e-02 9.34e-01 1.95e+07  -6.0 1.41e+02    -  5.84e-03 4.06e-03h  1
 168  5.6915429e-02 9.31e-01 1.94e+07  -6.0 1.17e+02    -  3.49e-02 3.36e-03h  1
 169  5.1616971e-02 9.16e-01 1.89e+07  -6.0 1.29e+02    -  1.62e-02 2.73e-02h  1
iter    objective    inf_pr   inf_du lg(mu)  ||d||  lg(rg) alpha_du alpha_pr  ls
 170  4.3286645e-02 9.06e-01 1.80e+07  -6.0 1.35e+02    -  3.43e-01 4.39e-02h  1
 171  2.9392629e-02 9.42e-01 1.67e+07  -6.0 1.61e+02    -  9.17e-02 7.59e-02h  1
 172r 2.9392629e-02 9.42e-01 1.00e+03  -0.7 0.00e+00    -  0.00e+00 1.99e-07R  2
 173r 2.9392263e-02 9.42e-01 1.39e+03  -0.7 3.91e+03    -  9.03e-06 3.53e-07f  1
 174  2.9384698e-02 9.42e-01 3.12e+06  -6.0 4.51e+01    -  1.63e-01 4.44e-05h  1
 175  2.9335312e-02 9.42e-01 1.84e+07  -6.0 1.19e+02    -  4.95e-05 2.93e-04h  1
 176  2.9304705e-02 9.42e-01 1.84e+07  -6.0 1.24e+02    -  8.22e-03 1.81e-04h  1
 177  2.8696301e-02 9.38e-01 1.84e+07  -6.0 1.29e+02    -  5.42e-04 3.57e-03h  1
 178  2.3733191e-02 9.11e-01 1.78e+07  -6.0 2.87e+02    -  1.09e-03 2.88e-02h  1
 179  2.2968489e-02 9.07e-01 1.77e+07  -6.0 1.79e+02    -  7.04e-02 4.70e-03h  1
iter    objective    inf_pr   inf_du lg(mu)  ||d||  lg(rg) alpha_du alpha_pr  ls
 180  1.0623575e-02 8.96e-01 1.64e+07  -6.0 1.95e+02    -  4.81e-03 7.58e-02h  1
 181  2.5821629e-04 8.73e-01 1.53e+07  -6.0 2.55e+02    -  8.87e-02 6.82e-02h  1
In iteration 181, 1 Slack too small, adjusting variable bound
 182  2.5772944e-04 8.73e-01 1.53e+07  -6.0 2.04e+02    -  1.06e-04 3.45e-06h  1
 183 -6.9666326e-03 8.49e-01 1.45e+07  -6.0 2.58e+02    -  3.11e-05 5.11e-02h  1
 184 -1.7099724e-02 8.28e-01 6.54e+07  -6.0 2.35e+02    -  3.94e-03 7.58e-02f  1
 185 -2.6695346e-02 8.07e-01 6.04e+07  -6.0 1.81e+02    -  2.22e-02 7.73e-02f  1
 186 -7.1358506e-02 2.04e+00 3.56e+08  -6.0 1.21e+02    -  4.07e-03 3.87e-01f  1
 187 -7.1961428e-02 2.02e+00 3.57e+08  -6.0 7.81e+01    -  2.13e-01 8.13e-03h  1
 188 -8.4519254e-02 1.80e+00 2.97e+08  -6.0 6.55e+01    -  1.08e-02 1.69e-01h  1
 189 -8.5897726e-02 1.76e+00 2.90e+08  -6.0 6.71e+01    -  1.34e-02 2.13e-02h  1
iter    objective    inf_pr   inf_du lg(mu)  ||d||  lg(rg) alpha_du alpha_pr  ls
 190 -1.0473797e-01 1.06e+00 1.90e+08  -6.0 2.01e+01    -  4.75e-03 3.45e-01h  1
 191 -1.0725836e-01 9.92e-01 1.79e+08  -6.0 3.04e+01    -  1.22e-02 6.37e-02h  1
 192 -1.0748158e-01 9.86e-01 1.78e+08  -6.0 1.18e+02    -  4.37e-02 5.54e-03h  1
 193 -1.0915692e-01 9.45e-01 1.70e+08  -6.0 1.25e+02    -  9.36e-02 4.11e-02h  1
 194 -1.1339980e-01 8.42e-01 1.52e+08  -6.0 1.26e+02    -  1.56e-01 1.08e-01h  1
 195 -1.3115613e-01 4.33e-01 7.61e+07  -6.0 1.23e+02    -  1.45e-01 4.99e-01h  1
 196 -1.4870698e-01 5.56e-01 1.05e+07  -6.0 6.76e+01    -  1.04e-01 1.00e+00h  1
 197 -1.4886643e-01 1.82e-03 7.36e+04  -6.0 5.48e+00    -  3.91e-01 1.00e+00h  1
 198 -1.4890525e-01 2.62e-05 2.92e+02  -6.0 5.48e-01    -  9.93e-01 1.00e+00h  1
 199 -1.4891525e-01 2.24e-04 2.80e+02  -6.0 6.91e+00  -3.4 3.79e-02 1.19e-02f  1
iter    objective    inf_pr   inf_du lg(mu)  ||d||  lg(rg) alpha_du alpha_pr  ls
 200 -1.4892994e-01 1.87e-02 2.43e+02  -6.0 4.03e+00  -3.9 1.39e-01 1.81e-01F  1
 201 -1.5678745e-01 3.15e-01 2.41e+02  -6.0 1.03e+02    -  6.75e-01 1.00e+00f  1
 202 -1.5682787e-01 2.98e-01 4.11e+02  -6.0 1.77e+00  -4.4 3.47e-01 5.22e-02h  1
 203 -1.5683049e-01 2.96e-01 4.24e+02  -6.0 1.25e+00  -3.0 5.30e-02 7.00e-03h  1
 204 -1.5709031e-01 5.35e-02 1.88e+02  -6.0 9.99e-01  -3.5 8.65e-02 8.19e-01f  1
 205 -1.5716173e-01 3.83e-02 1.46e+02  -6.0 7.91e-01  -4.0 2.41e-01 2.84e-01h  1
 206 -1.5783323e-01 8.55e-03 6.90e+01  -6.0 2.53e+00  -4.5 7.09e-01 1.00e+00f  1
 207 -1.5832900e-01 8.82e-03 4.45e+01  -6.0 7.87e+00  -4.9 5.89e-01 3.55e-01h  1
 208 -1.5951099e-01 3.87e-02 3.11e+01  -6.0 2.59e+01  -5.4 9.73e-01 3.01e-01h  1
 209 -1.6866828e-01 1.36e+00 2.21e+01  -6.0 9.11e+01  -5.9 2.75e-01 7.02e-01h  1
iter    objective    inf_pr   inf_du lg(mu)  ||d||  lg(rg) alpha_du alpha_pr  ls
 210 -1.7142007e-01 2.51e+00 1.72e+01  -6.0 7.88e+01  -6.4 3.63e-01 2.22e-01h  1
 211 -1.7811357e-01 9.46e-01 3.33e+01  -6.0 7.48e+01  -5.9 2.96e-01 7.24e-01h  1
 212 -1.8084683e-01 7.45e-01 5.52e+02  -6.0 1.05e+02  -6.4 2.54e-01 2.12e-01h  1
 213 -1.8202536e-01 7.05e-01 5.65e+02  -6.0 2.22e+02  -6.9 1.22e-01 5.51e-02h  1
 214 -1.8461737e-01 4.41e-01 1.85e+03  -6.0 1.24e+02  -7.4 2.06e-01 4.58e-01h  1
 215 -1.8879609e-01 4.03e-01 1.21e+03  -6.0 3.66e+02  -7.8 4.82e-01 2.42e-01h  1
 216 -1.9240672e-01 6.37e-01 1.04e+03  -6.0 1.22e+03  -8.3 7.17e-01 1.26e-01h  1
 217 -1.9995144e-01 1.90e+00 1.09e+02  -6.0 3.29e+02  -7.9 6.27e-01 9.03e-01h  1
 218 -2.1121555e-01 1.07e+01 5.53e+02  -6.0 1.18e+03  -8.4 3.58e-03 5.90e-01h  1
 219 -2.1128414e-01 1.04e+01 3.53e+03  -6.0 5.01e+01  -5.2 2.84e-05 3.09e-02h  1
iter    objective    inf_pr   inf_du lg(mu)  ||d||  lg(rg) alpha_du alpha_pr  ls
 220 -2.1121870e-01 8.18e+00 2.77e+03  -6.0 1.90e+01  -5.7 3.64e-03 2.10e-01h  1
 221 -2.1121422e-01 7.21e+00 2.44e+03  -6.0 2.82e+01  -6.2 5.69e-02 1.19e-01h  1
 222 -2.1125503e-01 5.12e+00 1.73e+03  -6.0 2.02e+01  -6.7 1.16e-01 2.90e-01h  1
 223 -2.1201580e-01 5.44e-02 3.25e+01  -6.0 5.01e+01  -7.2 8.80e-02 1.00e+00h  1
 224 -2.1213099e-01 5.31e-02 6.19e+01  -6.0 1.61e+02  -7.6 1.68e-01 2.64e-02h  1
 225 -2.1399907e-01 3.24e-01 1.30e+02  -6.0 4.22e+02  -8.1 6.20e-04 2.91e-01h  1
 226 -2.1704076e-01 1.22e+00 1.04e+02  -6.0 1.11e+03  -8.6 6.25e-01 2.01e-01h  1
 227 -2.1996615e-01 1.53e+00 4.34e+01  -6.0 3.96e+02  -8.2 1.00e+00 5.81e-01h  1
 228 -2.2623477e-01 3.89e+00 2.13e+01  -6.0 8.02e+02  -8.6 9.04e-01 5.52e-01h  1
 229 -2.2798684e-01 9.01e+00 1.40e+03  -6.0 1.43e+03  -8.2 1.11e-05 1.43e-01H  1
iter    objective    inf_pr   inf_du lg(mu)  ||d||  lg(rg) alpha_du alpha_pr  ls
 230 -2.2821268e-01 7.52e+00 1.48e+04  -6.0 8.14e+02  -7.8 6.97e-02 2.49e-01h  1
 231 -2.2863951e-01 6.98e+00 1.29e+04  -6.0 9.42e+02  -7.4 2.24e-02 7.21e-02h  1
 232 -2.2901815e-01 4.54e+00 5.70e+03  -6.0 1.04e+02  -6.0 1.36e-01 3.49e-01h  1
 233 -2.2916518e-01 2.84e+00 1.47e+03  -6.0 1.77e+01  -6.5 7.57e-03 3.74e-01h  1
 234 -2.2954980e-01 4.36e+00 1.57e+03  -6.0 4.93e+01  -7.0 2.81e-01 1.96e-01h  1
 235 -2.3015200e-01 1.73e+00 2.07e+03  -6.0 8.59e+01  -7.5 2.98e-01 1.00e+00h  1
 236 -2.3147145e-01 2.70e+00 3.12e+02  -6.0 2.71e+02  -7.9 1.00e+00 4.58e-01h  1
 237 -2.3485003e-01 1.19e+00 1.34e+02  -6.0 7.27e+02  -8.4 1.00e+00 5.72e-01h  1
 238 -2.4029360e-01 1.99e+00 5.95e+01  -6.0 1.89e+03  -8.9 4.40e-02 5.60e-01h  1
 239 -2.4037762e-01 1.70e+00 5.07e+01  -6.0 1.16e+02  -6.7 4.79e-02 1.47e-01h  1
iter    objective    inf_pr   inf_du lg(mu)  ||d||  lg(rg) alpha_du alpha_pr  ls
 240 -2.4052539e-01 2.62e+00 1.71e+01  -6.0 2.26e+01  -6.2 6.33e-01 6.63e-01h  1
 241 -2.4063426e-01 1.93e+00 1.35e+01  -6.0 7.23e+00  -5.8 1.00e+00 4.00e-01h  1
 242 -2.4081372e-01 2.88e+00 4.70e+00  -6.0 1.29e+01  -6.3 1.00e+00 5.39e-01h  1
 243 -2.4084214e-01 2.59e-01 4.51e-01  -6.0 1.64e+01  -6.8 1.00e+00 1.00e+00h  1
 244 -2.4110581e-01 1.80e-01 1.23e-01  -6.0 4.78e+01  -7.2 1.00e+00 1.00e+00h  1
 245 -2.4170159e-01 3.83e-02 5.27e-01  -6.0 1.30e+02  -7.7 1.00e+00 1.00e+00h  1
 246 -2.4297379e-01 5.43e-01 3.68e+00  -6.0 2.90e+02  -8.2 4.74e-01 1.00e+00h  1
 247 -2.4366308e-01 9.44e-01 1.17e+02  -6.0 1.79e+02  -8.7 5.49e-01 1.00e+00h  1
 248 -2.4362491e-01 4.71e+00 6.05e+01  -6.0 4.45e+02  -9.1 6.09e-01 1.00e+00h  1
 249 -2.4426319e-01 7.41e+01 4.52e+01  -6.0 1.89e+03  -9.6 3.31e-01 1.00e+00h  1
iter    objective    inf_pr   inf_du lg(mu)  ||d||  lg(rg) alpha_du alpha_pr  ls
 250 -2.4465641e-01 4.46e+01 2.78e+01  -6.0 1.61e+03  -9.2 4.99e-01 3.98e-01h  1
 251 -2.4539341e-01 6.87e+00 1.94e+00  -6.0 5.60e+02  -8.8 8.71e-01 1.00e+00h  1
 252 -2.4612163e-01 1.60e+01 1.49e+01  -6.0 6.29e+03  -9.2 2.34e-01 1.08e-01h  1
 253 -2.4789198e-01 2.46e+01 3.88e+01  -6.0 1.04e+03  -8.8 1.00e+00 1.00e+00h  1
 254 -2.4801517e-01 2.44e+01 3.58e+01  -6.0 5.12e+03  -9.3 1.44e-01 1.36e-02h  1
 255 -2.4901075e-01 8.01e+01 2.67e+01  -6.0 2.97e+03  -9.8 3.14e-01 6.47e-01h  1
 256 -2.4915051e-01 6.64e+01 3.07e+03  -6.0 8.65e+02  -8.4 2.41e-04 1.75e-01h  1
 257 -2.4927233e-01 4.38e+01 2.04e+03  -6.0 1.73e+02  -8.9 1.00e+00 3.42e-01h  1
 258 -2.4928814e-01 4.26e+01 1.96e+03  -6.0 3.93e+03  -9.4 7.67e-02 3.36e-02h  1
 259 -2.4962486e-01 3.93e+01 8.40e+02  -6.0 2.37e+03  -9.9 2.34e-01 5.76e-01h  1
iter    objective    inf_pr   inf_du lg(mu)  ||d||  lg(rg) alpha_du alpha_pr  ls
 260 -2.4961242e-01 3.93e+01 8.34e+02  -6.0 2.03e+04 -10.4 7.08e-02 6.76e-03h  2
 261 -2.4970410e-01 3.67e+01 7.74e+02  -6.0 1.73e+04 -10.8 9.14e-02 7.21e-02h  1
 262 -2.4996130e-01 2.77e+01 5.07e+02  -6.0 2.77e+03    -  2.65e-01 6.35e-01h  1
 263 -2.4997620e-01 2.56e+01 4.76e+02  -6.0 4.90e+02  -7.7 8.96e-02 7.65e-02h  1
 264 -2.4934124e-01 4.39e-01 3.05e+02  -6.0 2.61e+01  -7.3 2.35e-01 1.00e+00h  1
 265 -2.4940652e-01 3.74e-01 3.50e+01  -6.0 5.02e+01  -7.7 9.85e-01 6.53e-01h  1
 266 -2.4959518e-01 2.86e-01 4.70e-01  -6.0 1.12e+02  -8.2 1.00e+00 1.00e+00h  1
 267 -2.4982315e-01 7.66e-01 4.35e+00  -6.0 2.48e+02  -8.7 6.61e-01 9.25e-01h  1
 268 -2.4984822e-01 8.58e-02 1.24e+01  -6.0 6.86e+01  -8.3 4.61e-01 1.00e+00h  1
 269 -2.4986668e-01 8.78e-01 2.04e-01  -6.0 1.45e+02  -8.8 1.00e+00 1.00e+00h  1
iter    objective    inf_pr   inf_du lg(mu)  ||d||  lg(rg) alpha_du alpha_pr  ls
 270 -2.4989154e-01 7.16e-01 1.19e+01  -6.0 2.85e+02  -9.2 1.00e+00 4.96e-01h  1
 271 -2.4991692e-01 4.31e-01 1.46e-01  -6.0 8.88e+01  -8.8 1.00e+00 1.00e+00h  1
 272 -2.4995419e-01 8.26e-01 4.48e+01  -6.0 4.86e+02  -9.3 1.00e+00 2.17e-01h  1
 273 -2.5000121e-01 4.79e-01 4.18e-01  -6.0 1.33e+02  -8.9 1.00e+00 1.00e+00h  1
 274 -2.4997967e-01 2.51e+00 7.48e+00  -6.0 3.70e+02  -7.5 5.28e-02 1.00e+00h  1
 275 -2.5003960e-01 3.17e+00 6.07e+00  -6.0 8.13e+01  -7.1 2.06e-01 3.61e-01h  1
 276 -2.5016333e-01 4.04e+00 1.56e+01  -6.0 3.35e+01  -6.7 8.57e-01 3.45e-01h  1
 277 -2.5033662e-01 1.68e+01 7.87e+00  -6.0 2.10e+01  -7.2 6.93e-01 9.68e-01h  1
 278 -2.5042782e-01 1.75e+01 2.00e+02  -6.0 3.29e+01  -7.6 1.00e+00 2.56e-01h  1
 279 -2.5048677e-01 8.84e+00 2.16e+01  -6.0 2.93e+01  -8.1 1.00e+00 5.09e-01h  1
iter    objective    inf_pr   inf_du lg(mu)  ||d||  lg(rg) alpha_du alpha_pr  ls
 280 -2.5058834e-01 4.63e+00 2.71e+01  -6.0 6.38e+01  -8.6 5.84e-01 4.75e-01h  1
 281 -2.5079450e-01 2.01e-01 7.41e+01  -6.0 1.06e+02  -9.1 8.12e-01 1.00e+00h  1
 282 -2.5085273e-01 2.83e-01 5.80e+02  -6.0 3.56e+02  -9.5 6.20e-01 2.52e-01h  1
 283 -2.5101331e-01 4.77e-01 6.26e+02  -6.0 1.63e+02  -9.1 4.73e-01 1.00e+00h  1
 284 -2.5106667e-01 5.91e-01 1.40e+03  -6.0 4.02e+03    -  1.62e-01 9.77e-02h  1
 285 -2.5126576e-01 8.88e+00 1.06e+03  -6.0 3.24e+03    -  1.22e-01 5.42e-01f  1
 286 -2.5131153e-01 5.54e+00 3.78e+01  -6.0 1.28e+03    -  4.58e-01 1.00e+00h  1
 287 -2.5132194e-01 3.10e-01 4.67e-01  -6.0 1.85e+02    -  1.00e+00 1.00e+00h  1
 288 -2.5133123e-01 1.97e-01 2.54e-01  -6.0 1.84e+02    -  1.00e+00 1.00e+00h  1
 289 -2.5133452e-01 2.03e-01 1.57e+01  -6.0 2.71e+03    -  2.67e-01 1.22e-02h  6
iter    objective    inf_pr   inf_du lg(mu)  ||d||  lg(rg) alpha_du alpha_pr  ls
 290 -2.5134338e-01 2.11e-02 1.72e-02  -6.0 2.12e+01  -9.6 1.00e+00 1.00e+00h  1
 291 -2.5135786e-01 8.88e-02 1.51e-01  -6.0 9.87e+01 -10.1 1.00e+00 1.00e+00h  1
 292 -2.5136892e-01 4.92e-02 5.59e-02  -6.0 5.16e+01  -9.6 1.00e+00 1.00e+00h  1
 293 -2.5139651e-01 3.58e-01 8.92e+00  -6.0 5.61e+02 -10.1 1.00e+00 2.50e-01h  3
 294 -2.5143924e-01 7.31e-01 5.95e-01  -6.0 1.41e+02  -9.7 1.00e+00 1.00e+00h  1
 295 -2.5146866e-01 1.08e+00 7.25e+00  -6.0 4.05e+04    -  1.17e-02 2.16e-03h  2
 296 -2.5148232e-01 9.16e-01 3.90e+00  -6.0 3.05e+02    -  1.00e+00 2.55e-01h  2
 297 -2.5150300e-01 1.36e-01 2.26e-01  -6.0 1.77e+02    -  1.00e+00 1.00e+00h  1
 298 -2.5150085e-01 1.31e-03 1.11e-03  -6.0 1.15e+01    -  1.00e+00 1.00e+00h  1
 299 -2.5150083e-01 1.84e-06 1.20e-06  -6.0 3.77e-01    -  1.00e+00 1.00e+00h  1
iter    objective    inf_pr   inf_du lg(mu)  ||d||  lg(rg) alpha_du alpha_pr  ls
 300 -2.5167645e-01 1.12e-01 9.81e+01  -7.5 5.04e+03    -  4.25e-01 8.46e-02h  1
 301 -2.5183297e-01 4.16e+00 8.54e+01  -7.5 4.35e+03 -10.2 6.30e-02 8.78e-02h  1
 302 -2.5207670e-01 3.49e+00 4.55e+01  -7.5 4.12e+03    -  4.09e-03 1.73e-01h  1
 303 -2.5258156e-01 3.56e+00 1.64e+01  -7.5 5.62e+03    -  5.96e-02 3.19e-01h  1
 304 -2.5269318e-01 5.35e+00 1.83e+01  -7.5 1.92e+04 -10.6 1.19e-02 2.70e-02h  1
 305 -2.5301745e-01 9.30e+00 6.43e+01  -7.5 1.44e+03    -  5.46e-02 3.91e-01h  1
 306 -2.5305088e-01 9.25e+00 6.34e+01  -7.5 4.48e+03    -  1.37e-02 1.37e-02h  1
 307 -2.5307981e-01 8.95e+00 5.44e+01  -7.5 1.74e+03    -  8.92e-02 4.55e-02h  1
 308 -2.5328684e-01 1.19e+01 5.38e+01  -7.5 1.66e+03    -  2.00e-01 3.27e-01h  1
 309 -2.5360060e-01 1.73e+01 6.01e+01  -7.5 1.48e+03    -  1.89e-01 4.99e-01h  1
iter    objective    inf_pr   inf_du lg(mu)  ||d||  lg(rg) alpha_du alpha_pr  ls
 310 -2.5375346e-01 1.44e+01 6.17e+01  -7.5 9.45e+02    -  4.37e-02 2.25e-01h  1
 311 -2.5397501e-01 3.97e+01 6.40e+01  -7.5 5.38e+03    -  1.98e-02 2.14e-01h  1
 312 -2.5412320e-01 3.39e+01 2.18e+02  -7.5 6.10e+02    -  5.50e-04 1.50e-01h  1
 313 -2.5423826e-01 3.17e+01 1.91e+02  -7.5 2.31e+03    -  8.53e-02 1.22e-01h  1
 314 -2.5429919e-01 2.98e+01 2.90e+03  -7.5 1.22e+03    -  7.07e-03 6.10e-02h  1
 315 -2.5472017e-01 1.54e+01 1.15e+03  -7.5 9.28e+02    -  1.46e-02 4.84e-01h  1
 316 -2.5487802e-01 9.96e+00 9.13e+02  -7.5 6.44e+02    -  4.17e-02 3.57e-01h  1
 317 -2.5487845e-01 9.94e+00 9.11e+02  -7.5 2.18e+03    -  9.53e-04 2.07e-03h  1
 318 -2.5488903e-01 9.41e+00 7.83e+02  -7.5 1.90e+03    -  2.43e-01 5.30e-02h  1
 319 -2.5493592e-01 6.40e+00 6.17e+02  -7.5 2.88e+02    -  4.41e-03 3.21e-01h  1
iter    objective    inf_pr   inf_du lg(mu)  ||d||  lg(rg) alpha_du alpha_pr  ls
 320 -2.5502733e-01 7.99e-01 2.33e+02  -7.5 1.36e+02  -8.4 1.82e-01 8.90e-01h  1
 321 -2.5507226e-01 4.55e-01 1.41e+02  -7.5 1.17e+02  -8.9 4.31e-02 9.68e-01h  1
 322 -2.5510500e-01 4.45e-01 1.24e+02  -7.5 3.37e+02  -9.4 1.22e-01 1.05e-01h  1
 323 -2.5511347e-01 4.00e-01 3.42e+01  -7.5 1.05e+03    -  6.58e-01 1.01e-01h  1
 324 -2.5516843e-01 4.56e+00 1.28e+01  -7.5 7.71e+02    -  6.29e-01 6.46e-01h  1
 325 -2.5517013e-01 1.05e+00 1.20e-01  -7.5 2.37e+02    -  1.00e+00 9.63e-01h  1
 326 -2.5517059e-01 6.69e-01 8.69e-01  -7.5 3.41e+02    -  7.77e-01 3.65e-01h  1
 327 -2.5516947e-01 1.69e-01 9.32e-03  -7.5 9.70e+01    -  1.00e+00 1.00e+00h  1
 328 -2.5517042e-01 2.15e-02 6.05e-03  -7.5 3.48e+01  -9.8 1.00e+00 1.00e+00h  1
 329 -2.5517107e-01 1.72e-01 5.11e-01  -7.5 2.66e+02    -  1.00e+00 3.53e-01h  1
iter    objective    inf_pr   inf_du lg(mu)  ||d||  lg(rg) alpha_du alpha_pr  ls
 330 -2.5517136e-01 2.46e-01 7.03e-03  -7.5 1.17e+02    -  1.00e+00 1.00e+00h  1
 331 -2.5517117e-01 1.02e-04 3.64e-06  -7.5 2.15e+00    -  1.00e+00 1.00e+00h  1
 332 -2.5517117e-01 3.66e-09 4.81e-11  -7.5 1.43e-02    -  1.00e+00 1.00e+00h  1
 333 -2.5518304e-01 2.67e-02 6.08e+00  -9.0 2.68e+02    -  9.48e-01 2.87e-01h  1
 334 -2.5518465e-01 2.67e-02 6.06e+00  -9.0 1.89e+02    -  1.00e+00 7.19e-02h  1
 335 -2.5518743e-01 3.92e-02 4.85e+00  -9.0 1.83e+02    -  1.00e+00 2.01e-01h  1
 336 -2.5519024e-01 1.52e-01 3.40e+00  -9.0 2.77e+02    -  1.00e+00 2.98e-01h  1
 337 -2.5519154e-01 1.17e-01 2.09e-01  -9.0 8.24e+01    -  9.67e-01 9.38e-01h  1
 338 -2.5519150e-01 2.71e-04 6.29e-05  -9.0 4.33e+00    -  1.00e+00 1.00e+00h  1
 339 -2.5519150e-01 4.73e-08 7.69e-10  -9.0 5.09e-02    -  1.00e+00 1.00e+00h  1
iter    objective    inf_pr   inf_du lg(mu)  ||d||  lg(rg) alpha_du alpha_pr  ls
 340 -2.5519150e-01 4.24e-10 1.50e-14  -9.0 1.97e-05    -  1.00e+00 1.00e+00h  1

Number of Iterations....: 340

                                   (scaled)                 (unscaled)
Objective...............:  -2.5519149894338961e-01   -2.5519149894338961e-01
Dual infeasibility......:   1.4991480279391567e-14    1.4991480279391567e-14
Constraint violation....:   4.2350211304411495e-10    4.2350211304411495e-10
Complementarity.........:   9.0911243482933968e-10    9.0911243482933968e-10
Overall NLP error.......:   9.0911243482933968e-10    9.0911243482933968e-10


Number of objective function evaluations             = 867
Number of objective gradient evaluations             = 340
Number of equality constraint evaluations            = 867
Number of inequality constraint evaluations          = 868
Number of equality constraint Jacobian evaluations   = 352
Number of inequality constraint Jacobian evaluations = 352
Number of Lagrangian Hessian evaluations             = 340
Total CPU secs in IPOPT (w/o function evaluations)   =    635.126
Total CPU secs in NLP function evaluations           =     17.184

EXIT: Optimal Solution Found.
